
se = 80; % nombre de sessions
gr = 40; % nombre de grups de treball
cl = 12; % nombre de slots
minPapersPerSlot = 3; % minim nombre d'articles per sessio i slot
maxSesionsPar = 20; % maxim nombre de sessions paraleles

npMax = [5, 3, 6, 6, 3, 6, 4, 5, 4, 6, 4, 4]; % nombre maxim de papers per slot

np = [16, 12, 11, 11, 14, 7, 16, 17, 14, 7, 16, 3, 5, 3, 12, 17, 9, 3, 6, 17, 7, 9, 6, 6, 8, 9, 10, 14, 7, 8, 9, 3, 16, 3, 17, 15, 3, 15, 6, 8, 14, 3, 8, 18, 17, 8, 5, 4, 12, 8, 8, 3, 18, 6, 3, 10, 10, 15, 3, 15, 11, 14, 3, 20, 8, 18, 6, 12, 12, 3, 5, 4, 4, 18, 3, 6, 13, 13, 18, 10]; % nombre de papers acceptats a cada sessio

WG = [ {1,2,3}, {}, {4}, {5}, {}, {6,7,8}, {9}, {}, {10,11}, {12,13}, {}, {14}, {15}, {}, {16}, {17}, {}, {18}, {19}, {20}, {21}, {22}, {23}, {24}, {25,26,27}, {28}, {29}, {}, {}, {30}, {}, {31,32,33}, {34}, {}, {}, {35,36,37}, {38}, {}, {39}, {40,1}, {2}, {}, {3,4,5}, {6}, {}, {7}, {}, {8}, {9}, {10}, {}, {11,12}, {13}, {14}, {}, {}, {}, {15}, {16,17,18}, {}, {19,20}, {21,22}, {23}, {}, {}, {}, {24}, {25,26,27}, {28,29,30}, {31}, {32}, {}, {33}, {34}, {}, {35,36,37}, {38}, {39}, {40}, {} ]; % grups per sessio

